2731016
17,9,36,38,61,50,34,43,52,7,57,8,44,26,16,58,49,51,27,30,13,2,23,41,60,62,42,6,33,45,54,10,65,25,5,20,24,40,63,37,66,29,11,22,48,18,4,31,55,28,59,39,53,0,46,47,1,64,12,19,3,14,67,35,15,21,32,56
